\ Model SBuM-010-StripPacking-10
\ LP format - for model browsing. Use MPS format to capture full model detail.
Minimize
  h
Subject To
 Height[B0]: - c[B0,1] + h >= 18
 Height[B1]: - c[B1,1] + h >= 5.5
 Height[B2]: - c[B2,1] + h >= 3.5
 Height[B3]: - c[B3,1] + h >= 3
 Height[B4]: - c[B4,1] + h >= 25
 Height[B5]: - c[B5,1] + h >= 16.5
 Height[B6]: - c[B6,1] + h >= 12
 Height[B7]: - c[B7,1] + h >= 3.5
 Height[B8]: - c[B8,1] + h >= 4.5
 Height[B9]: - c[B9,1] + h >= 16
 PM[B0,B1,0]: - c[B0,0] + c[B1,0] + 100 delta[B0,B1] + 100 delta[B1,B0]
   - 100 DELTA[B0,B1] >= 28
 PM[B0,B1,1]: - c[B0,1] + c[B1,1] - 10000 delta[B0,B1] + 10000 DELTA[B0,B1]
   >= -9976.5
 PM[B0,B2,0]: - c[B0,0] + c[B2,0] + 100 delta[B0,B2] + 100 delta[B2,B0]
   - 100 DELTA[B0,B2] >= 12.5
 PM[B0,B2,1]: - c[B0,1] + c[B2,1] - 9997 delta[B0,B2] + 9997 DELTA[B0,B2]
   >= -9975.5
 PM[B0,B3,0]: - c[B0,0] + c[B3,0] + 100 delta[B0,B3] + 100 delta[B3,B0]
   - 100 DELTA[B0,B3] >= 20.5
 PM[B0,B3,1]: - c[B0,1] + c[B3,1] - 10000 delta[B0,B3] + 10000 DELTA[B0,B3]
   >= -9979
 PM[B0,B4,0]: - c[B0,0] + c[B4,0] + 100 delta[B0,B4] + 100 delta[B4,B0]
   - 100 DELTA[B0,B4] >= 32
 PM[B0,B4,1]: - c[B0,1] + c[B4,1] - 10000 delta[B0,B4] + 10000 DELTA[B0,B4]
   >= -9972
 PM[B0,B5,0]: - c[B0,0] + c[B5,0] + 100 delta[B0,B5] + 100 delta[B5,B0]
   - 100 DELTA[B0,B5] >= 12
 PM[B0,B5,1]: - c[B0,1] + c[B5,1] - 9995 delta[B0,B5] + 9995 DELTA[B0,B5]
   >= -9971.5
 PM[B0,B6,0]: - c[B0,0] + c[B6,0] + 100 delta[B0,B6] + 100 delta[B6,B0]
   - 100 DELTA[B0,B6] >= 12
 PM[B0,B6,1]: - c[B0,1] + c[B6,1] - 9989 delta[B0,B6] + 9989 DELTA[B0,B6]
   >= -9959
 PM[B0,B7,0]: - c[B0,0] + c[B7,0] + 100 delta[B0,B7] + 100 delta[B7,B0]
   - 100 DELTA[B0,B7] >= 11
 PM[B0,B7,1]: - c[B0,1] + c[B7,1] - 10000 delta[B0,B7] + 10000 DELTA[B0,B7]
   >= -9978.5
 PM[B0,B8,0]: - c[B0,0] + c[B8,0] + 100 delta[B0,B8] + 100 delta[B8,B0]
   - 100 DELTA[B0,B8] >= 14
 PM[B0,B8,1]: - c[B0,1] + c[B8,1] - 9994 delta[B0,B8] + 9994 DELTA[B0,B8]
   >= -9971.5
 PM[B0,B9,0]: - c[B0,0] + c[B9,0] + 100 delta[B0,B9] + 100 delta[B9,B0]
   - 100 DELTA[B0,B9] >= 9
 PM[B0,B9,1]: - c[B0,1] + c[B9,1] - 9993 delta[B0,B9] + 9993 DELTA[B0,B9]
   >= -9969
 PM[B1,B0,0]: c[B0,0] - c[B1,0] - 100 DELTA[B0,B1] >= -87
 PM[B1,B0,1]: c[B0,1] - c[B1,1] - 10000 delta[B1,B0] + 10000 DELTA[B0,B1]
   >= -9986.5
 PM[B1,B2,0]: - c[B1,0] + c[B2,0] + 100 delta[B1,B2] + 100 delta[B2,B1]
   - 100 DELTA[B1,B2] >= 15.5
 PM[B1,B2,1]: - c[B1,1] + c[B2,1] - 10000 delta[B1,B2] + 10000 DELTA[B1,B2]
   >= -9988
 PM[B1,B3,0]: - c[B1,0] + c[B3,0] + 100 delta[B1,B3] + 100 delta[B3,B1]
   - 100 DELTA[B1,B3] >= 23.5
 PM[B1,B3,1]: - c[B1,1] + c[B3,1] - 10000 delta[B1,B3] + 10000 DELTA[B1,B3]
   >= -9991.5
 PM[B1,B4,0]: - c[B1,0] + c[B4,0] + 100 delta[B1,B4] + 100 delta[B4,B1]
   - 100 DELTA[B1,B4] >= 35
 PM[B1,B4,1]: - c[B1,1] + c[B4,1] - 10000 delta[B1,B4] + 10000 DELTA[B1,B4]
   >= -9984.5
 PM[B1,B5,0]: - c[B1,0] + c[B5,0] + 100 delta[B1,B5] + 100 delta[B5,B1]
   - 100 DELTA[B1,B5] >= 15
 PM[B1,B5,1]: - c[B1,1] + c[B5,1] - 10000 delta[B1,B5] + 10000 DELTA[B1,B5]
   >= -9984
 PM[B1,B6,0]: - c[B1,0] + c[B6,0] + 100 delta[B1,B6] + 100 delta[B6,B1]
   - 100 DELTA[B1,B6] >= 15
 PM[B1,B6,1]: - c[B1,1] + c[B6,1] - 10000 delta[B1,B6] + 10000 DELTA[B1,B6]
   >= -9971.5
 PM[B1,B7,0]: - c[B1,0] + c[B7,0] + 100 delta[B1,B7] + 100 delta[B7,B1]
   - 100 DELTA[B1,B7] >= 14
 PM[B1,B7,1]: - c[B1,1] + c[B7,1] - 10000 delta[B1,B7] + 10000 DELTA[B1,B7]
   >= -9991
 PM[B1,B8,0]: - c[B1,0] + c[B8,0] + 100 delta[B1,B8] + 100 delta[B8,B1]
   - 100 DELTA[B1,B8] >= 17
 PM[B1,B8,1]: - c[B1,1] + c[B8,1] - 10000 delta[B1,B8] + 10000 DELTA[B1,B8]
   >= -9984
 PM[B1,B9,0]: - c[B1,0] + c[B9,0] + 100 delta[B1,B9] + 100 delta[B9,B1]
   - 100 DELTA[B1,B9] >= 12
 PM[B1,B9,1]: - c[B1,1] + c[B9,1] - 10000 delta[B1,B9] + 10000 DELTA[B1,B9]
   >= -9981.5
 PM[B2,B0,0]: c[B0,0] - c[B2,0] - 100 DELTA[B0,B2] >= -91.5
 PM[B2,B0,1]: c[B0,1] - c[B2,1] - 10000 delta[B2,B0] + 10000 DELTA[B0,B2]
   >= -9988.5
 PM[B2,B1,0]: c[B1,0] - c[B2,0] - 100 DELTA[B1,B2] >= -73.5
 PM[B2,B1,1]: c[B1,1] - c[B2,1] - 10000 delta[B2,B1] + 10000 DELTA[B1,B2]
   >= -9991
 PM[B2,B3,0]: - c[B2,0] + c[B3,0] + 100 delta[B2,B3] + 100 delta[B3,B2]
   - 100 DELTA[B2,B3] >= 19
 PM[B2,B3,1]: - c[B2,1] + c[B3,1] - 10000 delta[B2,B3] + 10000 DELTA[B2,B3]
   >= -9993.5
 PM[B2,B4,0]: - c[B2,0] + c[B4,0] + 100 delta[B2,B4] + 100 delta[B4,B2]
   - 100 DELTA[B2,B4] >= 30.5
 PM[B2,B4,1]: - c[B2,1] + c[B4,1] - 10000 delta[B2,B4] + 10000 DELTA[B2,B4]
   >= -9986.5
 PM[B2,B5,0]: - c[B2,0] + c[B5,0] + 100 delta[B2,B5] + 100 delta[B5,B2]
   - 100 DELTA[B2,B5] >= 10.5
 PM[B2,B5,1]: - c[B2,1] + c[B5,1] - 10000 delta[B2,B5] + 10000 DELTA[B2,B5]
   >= -9986
 PM[B2,B6,0]: - c[B2,0] + c[B6,0] + 100 delta[B2,B6] + 100 delta[B6,B2]
   - 100 DELTA[B2,B6] >= 10.5
 PM[B2,B6,1]: - c[B2,1] + c[B6,1] - 10000 delta[B2,B6] + 10000 DELTA[B2,B6]
   >= -9973.5
 PM[B2,B7,0]: - c[B2,0] + c[B7,0] + 100 delta[B2,B7] + 100 delta[B7,B2]
   - 100 DELTA[B2,B7] >= 9.5
 PM[B2,B7,1]: - c[B2,1] + c[B7,1] - 10000 delta[B2,B7] + 10000 DELTA[B2,B7]
   >= -9993
 PM[B2,B8,0]: - c[B2,0] + c[B8,0] + 100 delta[B2,B8] + 100 delta[B8,B2]
   - 100 DELTA[B2,B8] >= 12.5
 PM[B2,B8,1]: - c[B2,1] + c[B8,1] - 10000 delta[B2,B8] + 10000 DELTA[B2,B8]
   >= -9986
 PM[B2,B9,0]: - c[B2,0] + c[B9,0] + 100 delta[B2,B9] + 100 delta[B9,B2]
   - 100 DELTA[B2,B9] >= 7.5
 PM[B2,B9,1]: - c[B2,1] + c[B9,1] - 10000 delta[B2,B9] + 10000 DELTA[B2,B9]
   >= -9983.5
 PM[B3,B0,0]: c[B0,0] - c[B3,0] - 100 DELTA[B0,B3] >= -84.5
 PM[B3,B0,1]: c[B0,1] - c[B3,1] - 10000 delta[B3,B0] + 10000 DELTA[B0,B3]
   >= -9989
 PM[B3,B1,0]: c[B1,0] - c[B3,0] - 95 DELTA[B1,B3] >= -66.5
 PM[B3,B1,1]: c[B1,1] - c[B3,1] - 10000 delta[B3,B1] + 10000 DELTA[B1,B3]
   >= -9991.5
 PM[B3,B2,0]: c[B2,0] - c[B3,0] - 96 DELTA[B2,B3] >= -82
 PM[B3,B2,1]: c[B2,1] - c[B3,1] - 10000 delta[B3,B2] + 10000 DELTA[B2,B3]
   >= -9990.5
 PM[B3,B4,0]: - c[B3,0] + c[B4,0] + 95 delta[B3,B4] + 95 delta[B4,B3]
   - 95 DELTA[B3,B4] >= 32.5
 PM[B3,B4,1]: - c[B3,1] + c[B4,1] - 10000 delta[B3,B4] + 10000 DELTA[B3,B4]
   >= -9987
 PM[B3,B5,0]: - c[B3,0] + c[B5,0] + 100 delta[B3,B5] + 100 delta[B5,B3]
   - 100 DELTA[B3,B5] >= 17.5
 PM[B3,B5,1]: - c[B3,1] + c[B5,1] - 10000 delta[B3,B5] + 10000 DELTA[B3,B5]
   >= -9986.5
 PM[B3,B6,0]: - c[B3,0] + c[B6,0] + 100 delta[B3,B6] + 100 delta[B6,B3]
   - 100 DELTA[B3,B6] >= 17.5
 PM[B3,B6,1]: - c[B3,1] + c[B6,1] - 10000 delta[B3,B6] + 10000 DELTA[B3,B6]
   >= -9974
 PM[B3,B7,0]: - c[B3,0] + c[B7,0] + 100 delta[B3,B7] + 100 delta[B7,B3]
   - 100 DELTA[B3,B7] >= 16.5
 PM[B3,B7,1]: - c[B3,1] + c[B7,1] - 10000 delta[B3,B7] + 10000 DELTA[B3,B7]
   >= -9993.5
 PM[B3,B8,0]: - c[B3,0] + c[B8,0] + 100 delta[B3,B8] + 100 delta[B8,B3]
   - 100 DELTA[B3,B8] >= 19.5
 PM[B3,B8,1]: - c[B3,1] + c[B8,1] - 10000 delta[B3,B8] + 10000 DELTA[B3,B8]
   >= -9986.5
 PM[B3,B9,0]: - c[B3,0] + c[B9,0] + 100 delta[B3,B9] + 100 delta[B9,B3]
   - 100 DELTA[B3,B9] >= 14.5
 PM[B3,B9,1]: - c[B3,1] + c[B9,1] - 10000 delta[B3,B9] + 10000 DELTA[B3,B9]
   >= -9984
 PM[B4,B0,0]: c[B0,0] - c[B4,0] - 100 DELTA[B0,B4] >= -86
 PM[B4,B0,1]: c[B0,1] - c[B4,1] - 9998 delta[B4,B0] + 9998 DELTA[B0,B4]
   >= -9967
 PM[B4,B1,0]: c[B1,0] - c[B4,0] - 100 DELTA[B1,B4] >= -68
 PM[B4,B1,1]: c[B1,1] - c[B4,1] - 10000 delta[B4,B1] + 10000 DELTA[B1,B4]
   >= -9969.5
 PM[B4,B2,0]: c[B2,0] - c[B4,0] - 100 DELTA[B2,B4] >= -83.5
 PM[B4,B2,1]: c[B2,1] - c[B4,1] - 9997 delta[B4,B2] + 9997 DELTA[B2,B4]
   >= -9968.5
 PM[B4,B3,0]: c[B3,0] - c[B4,0] - 100 DELTA[B3,B4] >= -75.5
 PM[B4,B3,1]: c[B3,1] - c[B4,1] - 10000 delta[B4,B3] + 10000 DELTA[B3,B4]
   >= -9972
 PM[B4,B5,0]: - c[B4,0] + c[B5,0] + 100 delta[B4,B5] + 100 delta[B5,B4]
   - 100 DELTA[B4,B5] >= 16
 PM[B4,B5,1]: - c[B4,1] + c[B5,1] - 9995 delta[B4,B5] + 9995 DELTA[B4,B5]
   >= -9964.5
 PM[B4,B6,0]: - c[B4,0] + c[B6,0] + 100 delta[B4,B6] + 100 delta[B6,B4]
   - 100 DELTA[B4,B6] >= 16
 PM[B4,B6,1]: - c[B4,1] + c[B6,1] - 9989 delta[B4,B6] + 9989 DELTA[B4,B6]
   >= -9952
 PM[B4,B7,0]: - c[B4,0] + c[B7,0] + 100 delta[B4,B7] + 100 delta[B7,B4]
   - 100 DELTA[B4,B7] >= 15
 PM[B4,B7,1]: - c[B4,1] + c[B7,1] - 10000 delta[B4,B7] + 10000 DELTA[B4,B7]
   >= -9971.5
 PM[B4,B8,0]: - c[B4,0] + c[B8,0] + 100 delta[B4,B8] + 100 delta[B8,B4]
   - 100 DELTA[B4,B8] >= 18
 PM[B4,B8,1]: - c[B4,1] + c[B8,1] - 9994 delta[B4,B8] + 9994 DELTA[B4,B8]
   >= -9964.5
 PM[B4,B9,0]: - c[B4,0] + c[B9,0] + 100 delta[B4,B9] + 100 delta[B9,B4]
   - 100 DELTA[B4,B9] >= 13
 PM[B4,B9,1]: - c[B4,1] + c[B9,1] - 9993 delta[B4,B9] + 9993 DELTA[B4,B9]
   >= -9962
 PM[B5,B0,0]: c[B0,0] - c[B5,0] - 100 DELTA[B0,B5] >= -88
 PM[B5,B0,1]: c[B0,1] - c[B5,1] - 9998 delta[B5,B0] + 9998 DELTA[B0,B5]
   >= -9975.5
 PM[B5,B1,0]: c[B1,0] - c[B5,0] - 100 DELTA[B1,B5] >= -70
 PM[B5,B1,1]: c[B1,1] - c[B5,1] - 10000 delta[B5,B1] + 10000 DELTA[B1,B5]
   >= -9978
 PM[B5,B2,0]: c[B2,0] - c[B5,0] - 100 DELTA[B2,B5] >= -85.5
 PM[B5,B2,1]: c[B2,1] - c[B5,1] - 9997 delta[B5,B2] + 9997 DELTA[B2,B5]
   >= -9977
 PM[B5,B3,0]: c[B3,0] - c[B5,0] - 100 DELTA[B3,B5] >= -77.5
 PM[B5,B3,1]: c[B3,1] - c[B5,1] - 10000 delta[B5,B3] + 10000 DELTA[B3,B5]
   >= -9980.5
 PM[B5,B4,0]: c[B4,0] - c[B5,0] - 100 DELTA[B4,B5] >= -66
 PM[B5,B4,1]: c[B4,1] - c[B5,1] - 10000 delta[B5,B4] + 10000 DELTA[B4,B5]
   >= -9973.5
 PM[B5,B6,0]: - c[B5,0] + c[B6,0] + 100 delta[B5,B6] + 100 delta[B6,B5]
   - 100 DELTA[B5,B6] >= 14
 PM[B5,B6,1]: - c[B5,1] + c[B6,1] - 9989 delta[B5,B6] + 9989 DELTA[B5,B6]
   >= -9960.5
 PM[B5,B7,0]: - c[B5,0] + c[B7,0] + 100 delta[B5,B7] + 100 delta[B7,B5]
   - 100 DELTA[B5,B7] >= 13
 PM[B5,B7,1]: - c[B5,1] + c[B7,1] - 10000 delta[B5,B7] + 10000 DELTA[B5,B7]
   >= -9980
 PM[B5,B8,0]: - c[B5,0] + c[B8,0] + 100 delta[B5,B8] + 100 delta[B8,B5]
   - 100 DELTA[B5,B8] >= 16
 PM[B5,B8,1]: - c[B5,1] + c[B8,1] - 9994 delta[B5,B8] + 9994 DELTA[B5,B8]
   >= -9973
 PM[B5,B9,0]: - c[B5,0] + c[B9,0] + 100 delta[B5,B9] + 100 delta[B9,B5]
   - 100 DELTA[B5,B9] >= 11
 PM[B5,B9,1]: - c[B5,1] + c[B9,1] - 9993 delta[B5,B9] + 9993 DELTA[B5,B9]
   >= -9970.5
 PM[B6,B0,0]: c[B0,0] - c[B6,0] - 100 DELTA[B0,B6] >= -88
 PM[B6,B0,1]: c[B0,1] - c[B6,1] - 10000 delta[B6,B0] + 10000 DELTA[B0,B6]
   >= -9980
 PM[B6,B1,0]: c[B1,0] - c[B6,0] - 100 DELTA[B1,B6] >= -70
 PM[B6,B1,1]: c[B1,1] - c[B6,1] - 10000 delta[B6,B1] + 10000 DELTA[B1,B6]
   >= -9982.5
 PM[B6,B2,0]: c[B2,0] - c[B6,0] - 100 DELTA[B2,B6] >= -85.5
 PM[B6,B2,1]: c[B2,1] - c[B6,1] - 10000 delta[B6,B2] + 10000 DELTA[B2,B6]
   >= -9981.5
 PM[B6,B3,0]: c[B3,0] - c[B6,0] - 100 DELTA[B3,B6] >= -77.5
 PM[B6,B3,1]: c[B3,1] - c[B6,1] - 10000 delta[B6,B3] + 10000 DELTA[B3,B6]
   >= -9985
 PM[B6,B4,0]: c[B4,0] - c[B6,0] - 100 DELTA[B4,B6] >= -66
 PM[B6,B4,1]: c[B4,1] - c[B6,1] - 10000 delta[B6,B4] + 10000 DELTA[B4,B6]
   >= -9978
 PM[B6,B5,0]: c[B5,0] - c[B6,0] - 100 DELTA[B5,B6] >= -86
 PM[B6,B5,1]: c[B5,1] - c[B6,1] - 10000 delta[B6,B5] + 10000 DELTA[B5,B6]
   >= -9977.5
 PM[B6,B7,0]: - c[B6,0] + c[B7,0] + 100 delta[B6,B7] + 100 delta[B7,B6]
   - 100 DELTA[B6,B7] >= 13
 PM[B6,B7,1]: - c[B6,1] + c[B7,1] - 10000 delta[B6,B7] + 10000 DELTA[B6,B7]
   >= -9984.5
 PM[B6,B8,0]: - c[B6,0] + c[B8,0] + 100 delta[B6,B8] + 100 delta[B8,B6]
   - 100 DELTA[B6,B8] >= 16
 PM[B6,B8,1]: - c[B6,1] + c[B8,1] - 10000 delta[B6,B8] + 10000 DELTA[B6,B8]
   >= -9977.5
 PM[B6,B9,0]: - c[B6,0] + c[B9,0] + 100 delta[B6,B9] + 100 delta[B9,B6]
   - 100 DELTA[B6,B9] >= 11
 PM[B6,B9,1]: - c[B6,1] + c[B9,1] - 10000 delta[B6,B9] + 10000 DELTA[B6,B9]
   >= -9975
 PM[B7,B0,0]: c[B0,0] - c[B7,0] - 100 DELTA[B0,B7] >= -89
 PM[B7,B0,1]: c[B0,1] - c[B7,1] - 10000 delta[B7,B0] + 10000 DELTA[B0,B7]
   >= -9988.5
 PM[B7,B1,0]: c[B1,0] - c[B7,0] - 100 DELTA[B1,B7] >= -71
 PM[B7,B1,1]: c[B1,1] - c[B7,1] - 10000 delta[B7,B1] + 10000 DELTA[B1,B7]
   >= -9991
 PM[B7,B2,0]: c[B2,0] - c[B7,0] - 100 DELTA[B2,B7] >= -86.5
 PM[B7,B2,1]: c[B2,1] - c[B7,1] - 10000 delta[B7,B2] + 10000 DELTA[B2,B7]
   >= -9990
 PM[B7,B3,0]: c[B3,0] - c[B7,0] - 100 DELTA[B3,B7] >= -78.5
 PM[B7,B3,1]: c[B3,1] - c[B7,1] - 10000 delta[B7,B3] + 10000 DELTA[B3,B7]
   >= -9993.5
 PM[B7,B4,0]: c[B4,0] - c[B7,0] - 100 DELTA[B4,B7] >= -67
 PM[B7,B4,1]: c[B4,1] - c[B7,1] - 10000 delta[B7,B4] + 10000 DELTA[B4,B7]
   >= -9986.5
 PM[B7,B5,0]: c[B5,0] - c[B7,0] - 100 DELTA[B5,B7] >= -87
 PM[B7,B5,1]: c[B5,1] - c[B7,1] - 10000 delta[B7,B5] + 10000 DELTA[B5,B7]
   >= -9986
 PM[B7,B6,0]: c[B6,0] - c[B7,0] - 100 DELTA[B6,B7] >= -87
 PM[B7,B6,1]: c[B6,1] - c[B7,1] - 10000 delta[B7,B6] + 10000 DELTA[B6,B7]
   >= -9973.5
 PM[B7,B8,0]: - c[B7,0] + c[B8,0] + 100 delta[B7,B8] + 100 delta[B8,B7]
   - 100 DELTA[B7,B8] >= 15
 PM[B7,B8,1]: - c[B7,1] + c[B8,1] - 10000 delta[B7,B8] + 10000 DELTA[B7,B8]
   >= -9986
 PM[B7,B9,0]: - c[B7,0] + c[B9,0] + 100 delta[B7,B9] + 100 delta[B9,B7]
   - 100 DELTA[B7,B9] >= 10
 PM[B7,B9,1]: - c[B7,1] + c[B9,1] - 10000 delta[B7,B9] + 10000 DELTA[B7,B9]
   >= -9983.5
 PM[B8,B0,0]: c[B0,0] - c[B8,0] - 100 DELTA[B0,B8] >= -86
 PM[B8,B0,1]: c[B0,1] - c[B8,1] - 10000 delta[B8,B0] + 10000 DELTA[B0,B8]
   >= -9987.5
 PM[B8,B1,0]: c[B1,0] - c[B8,0] - 100 DELTA[B1,B8] >= -68
 PM[B8,B1,1]: c[B1,1] - c[B8,1] - 10000 delta[B8,B1] + 10000 DELTA[B1,B8]
   >= -9990
 PM[B8,B2,0]: c[B2,0] - c[B8,0] - 100 DELTA[B2,B8] >= -83.5
 PM[B8,B2,1]: c[B2,1] - c[B8,1] - 10000 delta[B8,B2] + 10000 DELTA[B2,B8]
   >= -9989
 PM[B8,B3,0]: c[B3,0] - c[B8,0] - 100 DELTA[B3,B8] >= -75.5
 PM[B8,B3,1]: c[B3,1] - c[B8,1] - 10000 delta[B8,B3] + 10000 DELTA[B3,B8]
   >= -9992.5
 PM[B8,B4,0]: c[B4,0] - c[B8,0] - 100 DELTA[B4,B8] >= -64
 PM[B8,B4,1]: c[B4,1] - c[B8,1] - 10000 delta[B8,B4] + 10000 DELTA[B4,B8]
   >= -9985.5
 PM[B8,B5,0]: c[B5,0] - c[B8,0] - 100 DELTA[B5,B8] >= -84
 PM[B8,B5,1]: c[B5,1] - c[B8,1] - 10000 delta[B8,B5] + 10000 DELTA[B5,B8]
   >= -9985
 PM[B8,B6,0]: c[B6,0] - c[B8,0] - 100 DELTA[B6,B8] >= -84
 PM[B8,B6,1]: c[B6,1] - c[B8,1] - 10000 delta[B8,B6] + 10000 DELTA[B6,B8]
   >= -9972.5
 PM[B8,B7,0]: c[B7,0] - c[B8,0] - 100 DELTA[B7,B8] >= -85
 PM[B8,B7,1]: c[B7,1] - c[B8,1] - 10000 delta[B8,B7] + 10000 DELTA[B7,B8]
   >= -9992
 PM[B8,B9,0]: - c[B8,0] + c[B9,0] + 100 delta[B8,B9] + 100 delta[B9,B8]
   - 100 DELTA[B8,B9] >= 13
 PM[B8,B9,1]: - c[B8,1] + c[B9,1] - 10000 delta[B8,B9] + 10000 DELTA[B8,B9]
   >= -9982.5
 PM[B9,B0,0]: c[B0,0] - c[B9,0] - 100 DELTA[B0,B9] >= -83
 PM[B9,B0,1]: c[B0,1] - c[B9,1] - 9998 delta[B9,B0] + 9998 DELTA[B0,B9]
   >= -9976
 PM[B9,B1,0]: c[B1,0] - c[B9,0] - 92 DELTA[B1,B9] >= -65
 PM[B9,B1,1]: c[B1,1] - c[B9,1] - 10000 delta[B9,B1] + 10000 DELTA[B1,B9]
   >= -9978.5
 PM[B9,B2,0]: c[B2,0] - c[B9,0] - 96 DELTA[B2,B9] >= -80.5
 PM[B9,B2,1]: c[B2,1] - c[B9,1] - 9997 delta[B9,B2] + 9997 DELTA[B2,B9]
   >= -9977.5
 PM[B9,B3,0]: c[B3,0] - c[B9,0] - 92 DELTA[B3,B9] >= -72.5
 PM[B9,B3,1]: c[B3,1] - c[B9,1] - 10000 delta[B9,B3] + 10000 DELTA[B3,B9]
   >= -9981
 PM[B9,B4,0]: c[B4,0] - c[B9,0] - 92 DELTA[B4,B9] >= -61
 PM[B9,B4,1]: c[B4,1] - c[B9,1] - 10000 delta[B9,B4] + 10000 DELTA[B4,B9]
   >= -9974
 PM[B9,B5,0]: c[B5,0] - c[B9,0] - 100 DELTA[B5,B9] >= -81
 PM[B9,B5,1]: c[B5,1] - c[B9,1] - 9995 delta[B9,B5] + 9995 DELTA[B5,B9]
   >= -9973.5
 PM[B9,B6,0]: c[B6,0] - c[B9,0] - 100 DELTA[B6,B9] >= -81
 PM[B9,B6,1]: c[B6,1] - c[B9,1] - 9990 delta[B9,B6] + 9990 DELTA[B6,B9]
   >= -9961
 PM[B9,B7,0]: c[B7,0] - c[B9,0] - 100 DELTA[B7,B9] >= -82
 PM[B9,B7,1]: c[B7,1] - c[B9,1] - 10000 delta[B9,B7] + 10000 DELTA[B7,B9]
   >= -9980.5
 PM[B9,B8,0]: c[B8,0] - c[B9,0] - 100 DELTA[B8,B9] >= -79
 PM[B9,B8,1]: c[B8,1] - c[B9,1] - 9994 delta[B9,B8] + 9994 DELTA[B8,B9]
   >= -9973.5
 McCormick1[B0,B1]: delta[B0,B1] + delta[B1,B0] - DELTA[B0,B1] <= 1
 McCormick1[B0,B2]: delta[B0,B2] + delta[B2,B0] - DELTA[B0,B2] <= 1
 McCormick1[B0,B3]: delta[B0,B3] + delta[B3,B0] - DELTA[B0,B3] <= 1
 McCormick1[B0,B4]: delta[B0,B4] + delta[B4,B0] - DELTA[B0,B4] <= 1
 McCormick1[B0,B5]: delta[B0,B5] + delta[B5,B0] - DELTA[B0,B5] <= 1
 McCormick1[B0,B6]: delta[B0,B6] + delta[B6,B0] - DELTA[B0,B6] <= 1
 McCormick1[B0,B7]: delta[B0,B7] + delta[B7,B0] - DELTA[B0,B7] <= 1
 McCormick1[B0,B8]: delta[B0,B8] + delta[B8,B0] - DELTA[B0,B8] <= 1
 McCormick1[B0,B9]: delta[B0,B9] + delta[B9,B0] - DELTA[B0,B9] <= 1
 McCormick1[B1,B0]: delta[B0,B1] + delta[B1,B0] - DELTA[B0,B1] <= 1
 McCormick1[B1,B2]: delta[B1,B2] + delta[B2,B1] - DELTA[B1,B2] <= 1
 McCormick1[B1,B3]: delta[B1,B3] + delta[B3,B1] - DELTA[B1,B3] <= 1
 McCormick1[B1,B4]: delta[B1,B4] + delta[B4,B1] - DELTA[B1,B4] <= 1
 McCormick1[B1,B5]: delta[B1,B5] + delta[B5,B1] - DELTA[B1,B5] <= 1
 McCormick1[B1,B6]: delta[B1,B6] + delta[B6,B1] - DELTA[B1,B6] <= 1
 McCormick1[B1,B7]: delta[B1,B7] + delta[B7,B1] - DELTA[B1,B7] <= 1
 McCormick1[B1,B8]: delta[B1,B8] + delta[B8,B1] - DELTA[B1,B8] <= 1
 McCormick1[B1,B9]: delta[B1,B9] + delta[B9,B1] - DELTA[B1,B9] <= 1
 McCormick1[B2,B0]: delta[B0,B2] + delta[B2,B0] - DELTA[B0,B2] <= 1
 McCormick1[B2,B1]: delta[B1,B2] + delta[B2,B1] - DELTA[B1,B2] <= 1
 McCormick1[B2,B3]: delta[B2,B3] + delta[B3,B2] - DELTA[B2,B3] <= 1
 McCormick1[B2,B4]: delta[B2,B4] + delta[B4,B2] - DELTA[B2,B4] <= 1
 McCormick1[B2,B5]: delta[B2,B5] + delta[B5,B2] - DELTA[B2,B5] <= 1
 McCormick1[B2,B6]: delta[B2,B6] + delta[B6,B2] - DELTA[B2,B6] <= 1
 McCormick1[B2,B7]: delta[B2,B7] + delta[B7,B2] - DELTA[B2,B7] <= 1
 McCormick1[B2,B8]: delta[B2,B8] + delta[B8,B2] - DELTA[B2,B8] <= 1
 McCormick1[B2,B9]: delta[B2,B9] + delta[B9,B2] - DELTA[B2,B9] <= 1
 McCormick1[B3,B0]: delta[B0,B3] + delta[B3,B0] - DELTA[B0,B3] <= 1
 McCormick1[B3,B1]: delta[B1,B3] + delta[B3,B1] - DELTA[B1,B3] <= 1
 McCormick1[B3,B2]: delta[B2,B3] + delta[B3,B2] - DELTA[B2,B3] <= 1
 McCormick1[B3,B4]: delta[B3,B4] + delta[B4,B3] - DELTA[B3,B4] <= 1
 McCormick1[B3,B5]: delta[B3,B5] + delta[B5,B3] - DELTA[B3,B5] <= 1
 McCormick1[B3,B6]: delta[B3,B6] + delta[B6,B3] - DELTA[B3,B6] <= 1
 McCormick1[B3,B7]: delta[B3,B7] + delta[B7,B3] - DELTA[B3,B7] <= 1
 McCormick1[B3,B8]: delta[B3,B8] + delta[B8,B3] - DELTA[B3,B8] <= 1
 McCormick1[B3,B9]: delta[B3,B9] + delta[B9,B3] - DELTA[B3,B9] <= 1
 McCormick1[B4,B0]: delta[B0,B4] + delta[B4,B0] - DELTA[B0,B4] <= 1
 McCormick1[B4,B1]: delta[B1,B4] + delta[B4,B1] - DELTA[B1,B4] <= 1
 McCormick1[B4,B2]: delta[B2,B4] + delta[B4,B2] - DELTA[B2,B4] <= 1
 McCormick1[B4,B3]: delta[B3,B4] + delta[B4,B3] - DELTA[B3,B4] <= 1
 McCormick1[B4,B5]: delta[B4,B5] + delta[B5,B4] - DELTA[B4,B5] <= 1
 McCormick1[B4,B6]: delta[B4,B6] + delta[B6,B4] - DELTA[B4,B6] <= 1
 McCormick1[B4,B7]: delta[B4,B7] + delta[B7,B4] - DELTA[B4,B7] <= 1
 McCormick1[B4,B8]: delta[B4,B8] + delta[B8,B4] - DELTA[B4,B8] <= 1
 McCormick1[B4,B9]: delta[B4,B9] + delta[B9,B4] - DELTA[B4,B9] <= 1
 McCormick1[B5,B0]: delta[B0,B5] + delta[B5,B0] - DELTA[B0,B5] <= 1
 McCormick1[B5,B1]: delta[B1,B5] + delta[B5,B1] - DELTA[B1,B5] <= 1
 McCormick1[B5,B2]: delta[B2,B5] + delta[B5,B2] - DELTA[B2,B5] <= 1
 McCormick1[B5,B3]: delta[B3,B5] + delta[B5,B3] - DELTA[B3,B5] <= 1
 McCormick1[B5,B4]: delta[B4,B5] + delta[B5,B4] - DELTA[B4,B5] <= 1
 McCormick1[B5,B6]: delta[B5,B6] + delta[B6,B5] - DELTA[B5,B6] <= 1
 McCormick1[B5,B7]: delta[B5,B7] + delta[B7,B5] - DELTA[B5,B7] <= 1
 McCormick1[B5,B8]: delta[B5,B8] + delta[B8,B5] - DELTA[B5,B8] <= 1
 McCormick1[B5,B9]: delta[B5,B9] + delta[B9,B5] - DELTA[B5,B9] <= 1
 McCormick1[B6,B0]: delta[B0,B6] + delta[B6,B0] - DELTA[B0,B6] <= 1
 McCormick1[B6,B1]: delta[B1,B6] + delta[B6,B1] - DELTA[B1,B6] <= 1
 McCormick1[B6,B2]: delta[B2,B6] + delta[B6,B2] - DELTA[B2,B6] <= 1
 McCormick1[B6,B3]: delta[B3,B6] + delta[B6,B3] - DELTA[B3,B6] <= 1
 McCormick1[B6,B4]: delta[B4,B6] + delta[B6,B4] - DELTA[B4,B6] <= 1
 McCormick1[B6,B5]: delta[B5,B6] + delta[B6,B5] - DELTA[B5,B6] <= 1
 McCormick1[B6,B7]: delta[B6,B7] + delta[B7,B6] - DELTA[B6,B7] <= 1
 McCormick1[B6,B8]: delta[B6,B8] + delta[B8,B6] - DELTA[B6,B8] <= 1
 McCormick1[B6,B9]: delta[B6,B9] + delta[B9,B6] - DELTA[B6,B9] <= 1
 McCormick1[B7,B0]: delta[B0,B7] + delta[B7,B0] - DELTA[B0,B7] <= 1
 McCormick1[B7,B1]: delta[B1,B7] + delta[B7,B1] - DELTA[B1,B7] <= 1
 McCormick1[B7,B2]: delta[B2,B7] + delta[B7,B2] - DELTA[B2,B7] <= 1
 McCormick1[B7,B3]: delta[B3,B7] + delta[B7,B3] - DELTA[B3,B7] <= 1
 McCormick1[B7,B4]: delta[B4,B7] + delta[B7,B4] - DELTA[B4,B7] <= 1
 McCormick1[B7,B5]: delta[B5,B7] + delta[B7,B5] - DELTA[B5,B7] <= 1
 McCormick1[B7,B6]: delta[B6,B7] + delta[B7,B6] - DELTA[B6,B7] <= 1
 McCormick1[B7,B8]: delta[B7,B8] + delta[B8,B7] - DELTA[B7,B8] <= 1
 McCormick1[B7,B9]: delta[B7,B9] + delta[B9,B7] - DELTA[B7,B9] <= 1
 McCormick1[B8,B0]: delta[B0,B8] + delta[B8,B0] - DELTA[B0,B8] <= 1
 McCormick1[B8,B1]: delta[B1,B8] + delta[B8,B1] - DELTA[B1,B8] <= 1
 McCormick1[B8,B2]: delta[B2,B8] + delta[B8,B2] - DELTA[B2,B8] <= 1
 McCormick1[B8,B3]: delta[B3,B8] + delta[B8,B3] - DELTA[B3,B8] <= 1
 McCormick1[B8,B4]: delta[B4,B8] + delta[B8,B4] - DELTA[B4,B8] <= 1
 McCormick1[B8,B5]: delta[B5,B8] + delta[B8,B5] - DELTA[B5,B8] <= 1
 McCormick1[B8,B6]: delta[B6,B8] + delta[B8,B6] - DELTA[B6,B8] <= 1
 McCormick1[B8,B7]: delta[B7,B8] + delta[B8,B7] - DELTA[B7,B8] <= 1
 McCormick1[B8,B9]: delta[B8,B9] + delta[B9,B8] - DELTA[B8,B9] <= 1
 McCormick1[B9,B0]: delta[B0,B9] + delta[B9,B0] - DELTA[B0,B9] <= 1
 McCormick1[B9,B1]: delta[B1,B9] + delta[B9,B1] - DELTA[B1,B9] <= 1
 McCormick1[B9,B2]: delta[B2,B9] + delta[B9,B2] - DELTA[B2,B9] <= 1
 McCormick1[B9,B3]: delta[B3,B9] + delta[B9,B3] - DELTA[B3,B9] <= 1
 McCormick1[B9,B4]: delta[B4,B9] + delta[B9,B4] - DELTA[B4,B9] <= 1
 McCormick1[B9,B5]: delta[B5,B9] + delta[B9,B5] - DELTA[B5,B9] <= 1
 McCormick1[B9,B6]: delta[B6,B9] + delta[B9,B6] - DELTA[B6,B9] <= 1
 McCormick1[B9,B7]: delta[B7,B9] + delta[B9,B7] - DELTA[B7,B9] <= 1
 McCormick1[B9,B8]: delta[B8,B9] + delta[B9,B8] - DELTA[B8,B9] <= 1
 McCormick2[B0,B1]: delta[B0,B1] - DELTA[B0,B1] >= 0
 McCormick2[B0,B2]: delta[B0,B2] - DELTA[B0,B2] >= 0
 McCormick2[B0,B3]: delta[B0,B3] - DELTA[B0,B3] >= 0
 McCormick2[B0,B4]: delta[B0,B4] - DELTA[B0,B4] >= 0
 McCormick2[B0,B5]: delta[B0,B5] - DELTA[B0,B5] >= 0
 McCormick2[B0,B6]: delta[B0,B6] - DELTA[B0,B6] >= 0
 McCormick2[B0,B7]: delta[B0,B7] - DELTA[B0,B7] >= 0
 McCormick2[B0,B8]: delta[B0,B8] - DELTA[B0,B8] >= 0
 McCormick2[B0,B9]: delta[B0,B9] - DELTA[B0,B9] >= 0
 McCormick2[B1,B0]: delta[B1,B0] - DELTA[B0,B1] >= 0
 McCormick2[B1,B2]: delta[B1,B2] - DELTA[B1,B2] >= 0
 McCormick2[B1,B3]: delta[B1,B3] - DELTA[B1,B3] >= 0
 McCormick2[B1,B4]: delta[B1,B4] - DELTA[B1,B4] >= 0
 McCormick2[B1,B5]: delta[B1,B5] - DELTA[B1,B5] >= 0
 McCormick2[B1,B6]: delta[B1,B6] - DELTA[B1,B6] >= 0
 McCormick2[B1,B7]: delta[B1,B7] - DELTA[B1,B7] >= 0
 McCormick2[B1,B8]: delta[B1,B8] - DELTA[B1,B8] >= 0
 McCormick2[B1,B9]: delta[B1,B9] - DELTA[B1,B9] >= 0
 McCormick2[B2,B0]: delta[B2,B0] - DELTA[B0,B2] >= 0
 McCormick2[B2,B1]: delta[B2,B1] - DELTA[B1,B2] >= 0
 McCormick2[B2,B3]: delta[B2,B3] - DELTA[B2,B3] >= 0
 McCormick2[B2,B4]: delta[B2,B4] - DELTA[B2,B4] >= 0
 McCormick2[B2,B5]: delta[B2,B5] - DELTA[B2,B5] >= 0
 McCormick2[B2,B6]: delta[B2,B6] - DELTA[B2,B6] >= 0
 McCormick2[B2,B7]: delta[B2,B7] - DELTA[B2,B7] >= 0
 McCormick2[B2,B8]: delta[B2,B8] - DELTA[B2,B8] >= 0
 McCormick2[B2,B9]: delta[B2,B9] - DELTA[B2,B9] >= 0
 McCormick2[B3,B0]: delta[B3,B0] - DELTA[B0,B3] >= 0
 McCormick2[B3,B1]: delta[B3,B1] - DELTA[B1,B3] >= 0
 McCormick2[B3,B2]: delta[B3,B2] - DELTA[B2,B3] >= 0
 McCormick2[B3,B4]: delta[B3,B4] - DELTA[B3,B4] >= 0
 McCormick2[B3,B5]: delta[B3,B5] - DELTA[B3,B5] >= 0
 McCormick2[B3,B6]: delta[B3,B6] - DELTA[B3,B6] >= 0
 McCormick2[B3,B7]: delta[B3,B7] - DELTA[B3,B7] >= 0
 McCormick2[B3,B8]: delta[B3,B8] - DELTA[B3,B8] >= 0
 McCormick2[B3,B9]: delta[B3,B9] - DELTA[B3,B9] >= 0
 McCormick2[B4,B0]: delta[B4,B0] - DELTA[B0,B4] >= 0
 McCormick2[B4,B1]: delta[B4,B1] - DELTA[B1,B4] >= 0
 McCormick2[B4,B2]: delta[B4,B2] - DELTA[B2,B4] >= 0
 McCormick2[B4,B3]: delta[B4,B3] - DELTA[B3,B4] >= 0
 McCormick2[B4,B5]: delta[B4,B5] - DELTA[B4,B5] >= 0
 McCormick2[B4,B6]: delta[B4,B6] - DELTA[B4,B6] >= 0
 McCormick2[B4,B7]: delta[B4,B7] - DELTA[B4,B7] >= 0
 McCormick2[B4,B8]: delta[B4,B8] - DELTA[B4,B8] >= 0
 McCormick2[B4,B9]: delta[B4,B9] - DELTA[B4,B9] >= 0
 McCormick2[B5,B0]: delta[B5,B0] - DELTA[B0,B5] >= 0
 McCormick2[B5,B1]: delta[B5,B1] - DELTA[B1,B5] >= 0
 McCormick2[B5,B2]: delta[B5,B2] - DELTA[B2,B5] >= 0
 McCormick2[B5,B3]: delta[B5,B3] - DELTA[B3,B5] >= 0
 McCormick2[B5,B4]: delta[B5,B4] - DELTA[B4,B5] >= 0
 McCormick2[B5,B6]: delta[B5,B6] - DELTA[B5,B6] >= 0
 McCormick2[B5,B7]: delta[B5,B7] - DELTA[B5,B7] >= 0
 McCormick2[B5,B8]: delta[B5,B8] - DELTA[B5,B8] >= 0
 McCormick2[B5,B9]: delta[B5,B9] - DELTA[B5,B9] >= 0
 McCormick2[B6,B0]: delta[B6,B0] - DELTA[B0,B6] >= 0
 McCormick2[B6,B1]: delta[B6,B1] - DELTA[B1,B6] >= 0
 McCormick2[B6,B2]: delta[B6,B2] - DELTA[B2,B6] >= 0
 McCormick2[B6,B3]: delta[B6,B3] - DELTA[B3,B6] >= 0
 McCormick2[B6,B4]: delta[B6,B4] - DELTA[B4,B6] >= 0
 McCormick2[B6,B5]: delta[B6,B5] - DELTA[B5,B6] >= 0
 McCormick2[B6,B7]: delta[B6,B7] - DELTA[B6,B7] >= 0
 McCormick2[B6,B8]: delta[B6,B8] - DELTA[B6,B8] >= 0
 McCormick2[B6,B9]: delta[B6,B9] - DELTA[B6,B9] >= 0
 McCormick2[B7,B0]: delta[B7,B0] - DELTA[B0,B7] >= 0
 McCormick2[B7,B1]: delta[B7,B1] - DELTA[B1,B7] >= 0
 McCormick2[B7,B2]: delta[B7,B2] - DELTA[B2,B7] >= 0
 McCormick2[B7,B3]: delta[B7,B3] - DELTA[B3,B7] >= 0
 McCormick2[B7,B4]: delta[B7,B4] - DELTA[B4,B7] >= 0
 McCormick2[B7,B5]: delta[B7,B5] - DELTA[B5,B7] >= 0
 McCormick2[B7,B6]: delta[B7,B6] - DELTA[B6,B7] >= 0
 McCormick2[B7,B8]: delta[B7,B8] - DELTA[B7,B8] >= 0
 McCormick2[B7,B9]: delta[B7,B9] - DELTA[B7,B9] >= 0
 McCormick2[B8,B0]: delta[B8,B0] - DELTA[B0,B8] >= 0
 McCormick2[B8,B1]: delta[B8,B1] - DELTA[B1,B8] >= 0
 McCormick2[B8,B2]: delta[B8,B2] - DELTA[B2,B8] >= 0
 McCormick2[B8,B3]: delta[B8,B3] - DELTA[B3,B8] >= 0
 McCormick2[B8,B4]: delta[B8,B4] - DELTA[B4,B8] >= 0
 McCormick2[B8,B5]: delta[B8,B5] - DELTA[B5,B8] >= 0
 McCormick2[B8,B6]: delta[B8,B6] - DELTA[B6,B8] >= 0
 McCormick2[B8,B7]: delta[B8,B7] - DELTA[B7,B8] >= 0
 McCormick2[B8,B9]: delta[B8,B9] - DELTA[B8,B9] >= 0
 McCormick2[B9,B0]: delta[B9,B0] - DELTA[B0,B9] >= 0
 McCormick2[B9,B1]: delta[B9,B1] - DELTA[B1,B9] >= 0
 McCormick2[B9,B2]: delta[B9,B2] - DELTA[B2,B9] >= 0
 McCormick2[B9,B3]: delta[B9,B3] - DELTA[B3,B9] >= 0
 McCormick2[B9,B4]: delta[B9,B4] - DELTA[B4,B9] >= 0
 McCormick2[B9,B5]: delta[B9,B5] - DELTA[B5,B9] >= 0
 McCormick2[B9,B6]: delta[B9,B6] - DELTA[B6,B9] >= 0
 McCormick2[B9,B7]: delta[B9,B7] - DELTA[B7,B9] >= 0
 McCormick2[B9,B8]: delta[B9,B8] - DELTA[B8,B9] >= 0
 McCormick3[B0,B1]: delta[B1,B0] - DELTA[B0,B1] >= 0
 McCormick3[B0,B2]: delta[B2,B0] - DELTA[B0,B2] >= 0
 McCormick3[B0,B3]: delta[B3,B0] - DELTA[B0,B3] >= 0
 McCormick3[B0,B4]: delta[B4,B0] - DELTA[B0,B4] >= 0
 McCormick3[B0,B5]: delta[B5,B0] - DELTA[B0,B5] >= 0
 McCormick3[B0,B6]: delta[B6,B0] - DELTA[B0,B6] >= 0
 McCormick3[B0,B7]: delta[B7,B0] - DELTA[B0,B7] >= 0
 McCormick3[B0,B8]: delta[B8,B0] - DELTA[B0,B8] >= 0
 McCormick3[B0,B9]: delta[B9,B0] - DELTA[B0,B9] >= 0
 McCormick3[B1,B0]: delta[B0,B1] - DELTA[B0,B1] >= 0
 McCormick3[B1,B2]: delta[B2,B1] - DELTA[B1,B2] >= 0
 McCormick3[B1,B3]: delta[B3,B1] - DELTA[B1,B3] >= 0
 McCormick3[B1,B4]: delta[B4,B1] - DELTA[B1,B4] >= 0
 McCormick3[B1,B5]: delta[B5,B1] - DELTA[B1,B5] >= 0
 McCormick3[B1,B6]: delta[B6,B1] - DELTA[B1,B6] >= 0
 McCormick3[B1,B7]: delta[B7,B1] - DELTA[B1,B7] >= 0
 McCormick3[B1,B8]: delta[B8,B1] - DELTA[B1,B8] >= 0
 McCormick3[B1,B9]: delta[B9,B1] - DELTA[B1,B9] >= 0
 McCormick3[B2,B0]: delta[B0,B2] - DELTA[B0,B2] >= 0
 McCormick3[B2,B1]: delta[B1,B2] - DELTA[B1,B2] >= 0
 McCormick3[B2,B3]: delta[B3,B2] - DELTA[B2,B3] >= 0
 McCormick3[B2,B4]: delta[B4,B2] - DELTA[B2,B4] >= 0
 McCormick3[B2,B5]: delta[B5,B2] - DELTA[B2,B5] >= 0
 McCormick3[B2,B6]: delta[B6,B2] - DELTA[B2,B6] >= 0
 McCormick3[B2,B7]: delta[B7,B2] - DELTA[B2,B7] >= 0
 McCormick3[B2,B8]: delta[B8,B2] - DELTA[B2,B8] >= 0
 McCormick3[B2,B9]: delta[B9,B2] - DELTA[B2,B9] >= 0
 McCormick3[B3,B0]: delta[B0,B3] - DELTA[B0,B3] >= 0
 McCormick3[B3,B1]: delta[B1,B3] - DELTA[B1,B3] >= 0
 McCormick3[B3,B2]: delta[B2,B3] - DELTA[B2,B3] >= 0
 McCormick3[B3,B4]: delta[B4,B3] - DELTA[B3,B4] >= 0
 McCormick3[B3,B5]: delta[B5,B3] - DELTA[B3,B5] >= 0
 McCormick3[B3,B6]: delta[B6,B3] - DELTA[B3,B6] >= 0
 McCormick3[B3,B7]: delta[B7,B3] - DELTA[B3,B7] >= 0
 McCormick3[B3,B8]: delta[B8,B3] - DELTA[B3,B8] >= 0
 McCormick3[B3,B9]: delta[B9,B3] - DELTA[B3,B9] >= 0
 McCormick3[B4,B0]: delta[B0,B4] - DELTA[B0,B4] >= 0
 McCormick3[B4,B1]: delta[B1,B4] - DELTA[B1,B4] >= 0
 McCormick3[B4,B2]: delta[B2,B4] - DELTA[B2,B4] >= 0
 McCormick3[B4,B3]: delta[B3,B4] - DELTA[B3,B4] >= 0
 McCormick3[B4,B5]: delta[B5,B4] - DELTA[B4,B5] >= 0
 McCormick3[B4,B6]: delta[B6,B4] - DELTA[B4,B6] >= 0
 McCormick3[B4,B7]: delta[B7,B4] - DELTA[B4,B7] >= 0
 McCormick3[B4,B8]: delta[B8,B4] - DELTA[B4,B8] >= 0
 McCormick3[B4,B9]: delta[B9,B4] - DELTA[B4,B9] >= 0
 McCormick3[B5,B0]: delta[B0,B5] - DELTA[B0,B5] >= 0
 McCormick3[B5,B1]: delta[B1,B5] - DELTA[B1,B5] >= 0
 McCormick3[B5,B2]: delta[B2,B5] - DELTA[B2,B5] >= 0
 McCormick3[B5,B3]: delta[B3,B5] - DELTA[B3,B5] >= 0
 McCormick3[B5,B4]: delta[B4,B5] - DELTA[B4,B5] >= 0
 McCormick3[B5,B6]: delta[B6,B5] - DELTA[B5,B6] >= 0
 McCormick3[B5,B7]: delta[B7,B5] - DELTA[B5,B7] >= 0
 McCormick3[B5,B8]: delta[B8,B5] - DELTA[B5,B8] >= 0
 McCormick3[B5,B9]: delta[B9,B5] - DELTA[B5,B9] >= 0
 McCormick3[B6,B0]: delta[B0,B6] - DELTA[B0,B6] >= 0
 McCormick3[B6,B1]: delta[B1,B6] - DELTA[B1,B6] >= 0
 McCormick3[B6,B2]: delta[B2,B6] - DELTA[B2,B6] >= 0
 McCormick3[B6,B3]: delta[B3,B6] - DELTA[B3,B6] >= 0
 McCormick3[B6,B4]: delta[B4,B6] - DELTA[B4,B6] >= 0
 McCormick3[B6,B5]: delta[B5,B6] - DELTA[B5,B6] >= 0
 McCormick3[B6,B7]: delta[B7,B6] - DELTA[B6,B7] >= 0
 McCormick3[B6,B8]: delta[B8,B6] - DELTA[B6,B8] >= 0
 McCormick3[B6,B9]: delta[B9,B6] - DELTA[B6,B9] >= 0
 McCormick3[B7,B0]: delta[B0,B7] - DELTA[B0,B7] >= 0
 McCormick3[B7,B1]: delta[B1,B7] - DELTA[B1,B7] >= 0
 McCormick3[B7,B2]: delta[B2,B7] - DELTA[B2,B7] >= 0
 McCormick3[B7,B3]: delta[B3,B7] - DELTA[B3,B7] >= 0
 McCormick3[B7,B4]: delta[B4,B7] - DELTA[B4,B7] >= 0
 McCormick3[B7,B5]: delta[B5,B7] - DELTA[B5,B7] >= 0
 McCormick3[B7,B6]: delta[B6,B7] - DELTA[B6,B7] >= 0
 McCormick3[B7,B8]: delta[B8,B7] - DELTA[B7,B8] >= 0
 McCormick3[B7,B9]: delta[B9,B7] - DELTA[B7,B9] >= 0
 McCormick3[B8,B0]: delta[B0,B8] - DELTA[B0,B8] >= 0
 McCormick3[B8,B1]: delta[B1,B8] - DELTA[B1,B8] >= 0
 McCormick3[B8,B2]: delta[B2,B8] - DELTA[B2,B8] >= 0
 McCormick3[B8,B3]: delta[B3,B8] - DELTA[B3,B8] >= 0
 McCormick3[B8,B4]: delta[B4,B8] - DELTA[B4,B8] >= 0
 McCormick3[B8,B5]: delta[B5,B8] - DELTA[B5,B8] >= 0
 McCormick3[B8,B6]: delta[B6,B8] - DELTA[B6,B8] >= 0
 McCormick3[B8,B7]: delta[B7,B8] - DELTA[B7,B8] >= 0
 McCormick3[B8,B9]: delta[B9,B8] - DELTA[B8,B9] >= 0
 McCormick3[B9,B0]: delta[B0,B9] - DELTA[B0,B9] >= 0
 McCormick3[B9,B1]: delta[B1,B9] - DELTA[B1,B9] >= 0
 McCormick3[B9,B2]: delta[B2,B9] - DELTA[B2,B9] >= 0
 McCormick3[B9,B3]: delta[B3,B9] - DELTA[B3,B9] >= 0
 McCormick3[B9,B4]: delta[B4,B9] - DELTA[B4,B9] >= 0
 McCormick3[B9,B5]: delta[B5,B9] - DELTA[B5,B9] >= 0
 McCormick3[B9,B6]: delta[B6,B9] - DELTA[B6,B9] >= 0
 McCormick3[B9,B7]: delta[B7,B9] - DELTA[B7,B9] >= 0
 McCormick3[B9,B8]: delta[B8,B9] - DELTA[B8,B9] >= 0
Bounds
 5 <= c[B0,0] <= 95
 8 <= c[B0,1] <= 9982
 23 <= c[B1,0] <= 92
 5.5 <= c[B1,1] <= 9994.5
 7.5 <= c[B2,0] <= 96.5
 6.5 <= c[B2,1] <= 9996.5
 15.5 <= c[B3,0] <= 89.5
 3 <= c[B3,1] <= 9997
 27 <= c[B4,0] <= 91
 10 <= c[B4,1] <= 9975
 7 <= c[B5,0] <= 93
 10.5 <= c[B5,1] <= 9983.5
 7 <= c[B6,0] <= 93
 23 <= c[B6,1] <= 9988
 6 <= c[B7,0] <= 94
 3.5 <= c[B7,1] <= 9996.5
 9 <= c[B8,0] <= 91
 10.5 <= c[B8,1] <= 9995.5
 4 <= c[B9,0] <= 88
 13 <= c[B9,1] <= 9984
 25 <= h <= 201
 DELTA[B0,B1] <= 1
 DELTA[B0,B2] <= 1
 DELTA[B0,B3] <= 1
 DELTA[B0,B4] <= 1
 DELTA[B0,B5] <= 1
 DELTA[B0,B6] <= 1
 DELTA[B0,B7] <= 1
 DELTA[B0,B8] <= 1
 DELTA[B0,B9] <= 1
 DELTA[B1,B2] <= 1
 DELTA[B1,B3] <= 1
 DELTA[B1,B4] <= 1
 DELTA[B1,B5] <= 1
 DELTA[B1,B6] <= 1
 DELTA[B1,B7] <= 1
 DELTA[B1,B8] <= 1
 DELTA[B1,B9] <= 1
 DELTA[B2,B3] <= 1
 DELTA[B2,B4] <= 1
 DELTA[B2,B5] <= 1
 DELTA[B2,B6] <= 1
 DELTA[B2,B7] <= 1
 DELTA[B2,B8] <= 1
 DELTA[B2,B9] <= 1
 DELTA[B3,B4] <= 1
 DELTA[B3,B5] <= 1
 DELTA[B3,B6] <= 1
 DELTA[B3,B7] <= 1
 DELTA[B3,B8] <= 1
 DELTA[B3,B9] <= 1
 DELTA[B4,B5] <= 1
 DELTA[B4,B6] <= 1
 DELTA[B4,B7] <= 1
 DELTA[B4,B8] <= 1
 DELTA[B4,B9] <= 1
 DELTA[B5,B6] <= 1
 DELTA[B5,B7] <= 1
 DELTA[B5,B8] <= 1
 DELTA[B5,B9] <= 1
 DELTA[B6,B7] <= 1
 DELTA[B6,B8] <= 1
 DELTA[B6,B9] <= 1
 DELTA[B7,B8] <= 1
 DELTA[B7,B9] <= 1
 DELTA[B8,B9] <= 1
Binaries
 delta[B0,B1] delta[B0,B2] delta[B0,B3] delta[B0,B4] delta[B0,B5]
 delta[B0,B6] delta[B0,B7] delta[B0,B8] delta[B0,B9] delta[B1,B0]
 delta[B1,B2] delta[B1,B3] delta[B1,B4] delta[B1,B5] delta[B1,B6]
 delta[B1,B7] delta[B1,B8] delta[B1,B9] delta[B2,B0] delta[B2,B1]
 delta[B2,B3] delta[B2,B4] delta[B2,B5] delta[B2,B6] delta[B2,B7]
 delta[B2,B8] delta[B2,B9] delta[B3,B0] delta[B3,B1] delta[B3,B2]
 delta[B3,B4] delta[B3,B5] delta[B3,B6] delta[B3,B7] delta[B3,B8]
 delta[B3,B9] delta[B4,B0] delta[B4,B1] delta[B4,B2] delta[B4,B3]
 delta[B4,B5] delta[B4,B6] delta[B4,B7] delta[B4,B8] delta[B4,B9]
 delta[B5,B0] delta[B5,B1] delta[B5,B2] delta[B5,B3] delta[B5,B4]
 delta[B5,B6] delta[B5,B7] delta[B5,B8] delta[B5,B9] delta[B6,B0]
 delta[B6,B1] delta[B6,B2] delta[B6,B3] delta[B6,B4] delta[B6,B5]
 delta[B6,B7] delta[B6,B8] delta[B6,B9] delta[B7,B0] delta[B7,B1]
 delta[B7,B2] delta[B7,B3] delta[B7,B4] delta[B7,B5] delta[B7,B6]
 delta[B7,B8] delta[B7,B9] delta[B8,B0] delta[B8,B1] delta[B8,B2]
 delta[B8,B3] delta[B8,B4] delta[B8,B5] delta[B8,B6] delta[B8,B7]
 delta[B8,B9] delta[B9,B0] delta[B9,B1] delta[B9,B2] delta[B9,B3]
 delta[B9,B4] delta[B9,B5] delta[B9,B6] delta[B9,B7] delta[B9,B8]
End
